# hydrated-electron MACE-tandem start configuration -- frame 0 (config 00000) of the centroid training set; excess electron at the spin-density centroid (REF_centroid). Regenerate with make_he_lmp.py.

193  atoms
3  atom types

0.0 12.430000 xlo xhi
0.0 12.430000 ylo yhi
0.0 12.430000 zlo zhi

Masses

1 15.99900000  # O
2 1.00800000  # H
3 0.00054858  # X

Atoms

1 1 6.994652 5.962668 4.037201
2 2 7.198570 5.451490 3.199675
3 2 6.581361 5.385547 4.672646
4 1 3.375967 2.228478 6.897186
5 2 3.669456 1.533878 6.268763
6 2 3.073420 2.957264 6.353872
7 1 10.708392 1.748886 7.264100
8 2 10.731400 2.488537 6.611419
9 2 11.115625 0.955888 6.894555
10 1 11.947317 11.587293 6.533325
11 2 12.539498 11.483179 5.836179
12 2 11.100028 11.366563 6.095421
13 1 11.532713 3.905966 10.906157
14 2 11.566422 3.759983 11.819912
15 2 10.865293 3.272484 10.559224
16 1 9.955037 2.083180 9.665600
17 2 8.951373 2.253630 9.653764
18 2 10.209592 1.869476 8.734693
19 1 4.603937 5.931984 0.031535
20 2 4.067167 6.713748 0.226049
21 2 5.473902 5.839053 0.494805
22 1 3.137563 10.699606 8.076293
23 2 2.549225 11.477063 8.260305
24 2 3.159850 10.551947 7.078034
25 1 1.634483 11.407032 4.535952
26 2 2.400840 11.858108 4.904017
27 2 1.380718 11.918530 3.710279
28 1 9.574289 11.206515 5.236877
29 2 8.848547 10.787354 5.747029
30 2 9.133278 12.010158 4.892099
31 1 10.433200 8.376879 5.700714
32 2 9.844652 8.894582 6.234839
33 2 10.550950 8.675556 4.815465
34 1 4.714094 0.910295 11.332064
35 2 5.580183 0.518202 11.509525
36 2 4.875579 1.468054 10.565982
37 1 12.237352 9.815111 1.109830
38 2 11.647799 10.595537 1.081792
39 2 12.944814 10.036343 0.507888
40 1 0.448100 7.047775 5.599945
41 2 0.979418 7.527883 4.939569
42 2 -0.363519 7.609992 5.688846
43 1 5.945311 9.550405 11.991161
44 2 5.418992 9.338815 11.152930
45 2 5.226200 9.755408 12.600449
46 1 8.770763 8.073312 10.139268
47 2 8.209298 8.093001 10.880651
48 2 9.338154 7.243335 10.119388
49 1 4.000029 5.115421 9.795124
50 2 4.397651 5.368556 10.686563
51 2 3.022226 4.878713 9.822596
52 1 7.589159 2.870799 9.824883
53 2 7.652910 3.816848 9.552284
54 2 6.754396 2.610250 9.420153
55 1 6.061700 2.194316 4.802277
56 2 5.594570 1.406934 5.124043
57 2 6.220423 2.777101 5.553523
58 1 8.142021 9.679997 6.944823
59 2 7.510610 8.949511 7.081232
60 2 8.539097 10.016521 7.770698
61 1 1.418207 3.881016 9.386332
62 2 0.638162 3.859382 10.033048
63 2 1.112146 4.121752 8.533218
64 1 10.213068 9.058132 3.020548
65 2 10.624780 9.810856 2.598245
66 2 9.531821 9.533703 3.450659
67 1 10.230503 1.537150 1.822662
68 2 9.656172 1.393277 2.611245
69 2 10.453582 0.649675 1.456847
70 1 8.916202 1.190282 4.157134
71 2 8.038511 1.579196 4.130208
72 2 9.362772 1.885035 4.663019
73 1 0.557490 0.872821 10.446939
74 2 1.009001 0.943218 9.543037
75 2 -0.374007 1.055648 10.291924
76 1 0.548877 0.628028 2.062427
77 2 1.252553 0.769990 1.439459
78 2 -0.128234 0.096258 1.595737
79 1 6.558328 4.555081 6.246125
80 2 5.700942 4.890897 6.564282
81 2 7.142794 4.928502 6.972160
82 1 4.043790 7.873107 2.201000
83 2 4.695008 8.005513 2.874809
84 2 3.546849 7.092927 2.586407
85 1 5.053311 9.933509 5.936675
86 2 5.676288 9.904560 6.675867
87 2 5.503691 9.472895 5.247702
88 1 9.725848 5.989743 4.644564
89 2 9.890260 6.805745 5.126641
90 2 8.848870 5.954665 4.361009
91 1 11.931661 3.606482 1.181099
92 2 11.724622 4.336439 1.788429
93 2 11.499251 2.851595 1.530178
94 1 4.215571 5.366342 7.081236
95 2 3.324541 5.412010 6.733946
96 2 4.089984 5.231476 8.055816
97 1 2.079281 8.263653 10.312069
98 2 1.331398 8.070772 9.707666
99 2 1.839221 7.887036 11.121605
100 1 9.591242 12.103281 11.069020
101 2 10.100954 12.042288 11.928383
102 2 9.758173 13.012323 10.717168
103 1 8.601326 3.048292 0.325005
104 2 9.319836 2.565868 0.829204
105 2 8.430361 2.492015 -0.413610
106 1 7.158700 11.867082 12.260312
107 2 6.761545 10.999705 12.110682
108 2 7.992007 11.885594 11.833400
109 1 1.317407 0.587053 7.901268
110 2 0.593178 0.264862 7.410039
111 2 1.676706 1.455541 7.500177
112 1 11.158949 7.486247 0.152853
113 2 12.015324 7.144191 -0.188223
114 2 11.376740 8.405225 0.576252
115 1 7.621260 5.384838 8.528341
116 2 7.099875 6.201113 8.635012
117 2 8.580023 5.622479 8.656321
118 1 1.147557 8.758615 3.459655
119 2 1.437814 9.653033 3.733542
120 2 0.427386 8.876978 2.861810
121 1 4.407435 9.196384 9.780419
122 2 4.041963 9.922693 9.292970
123 2 3.618786 8.660863 9.874953
124 1 4.986164 12.231486 2.565482
125 2 5.280689 12.911617 1.987514
126 2 4.326049 11.559479 2.105914
127 1 3.267149 3.584789 4.332211
128 2 3.033670 4.461872 3.972051
129 2 4.167130 3.377424 3.964590
130 1 11.633729 5.935433 2.511402
131 2 11.216459 6.624543 1.874038
132 2 11.004444 5.758615 3.239761
133 1 6.022096 7.981681 7.895942
134 2 5.445567 7.351279 7.414983
135 2 5.486743 8.365645 8.567862
136 1 7.267722 5.074302 1.350728
137 2 7.714773 5.825333 0.816517
138 2 7.688752 4.260060 1.064067
139 1 5.103536 2.642203 8.999660
140 2 4.695605 3.417899 9.377600
141 2 4.524249 2.444651 8.234441
142 1 2.155565 5.609312 2.888443
143 2 1.289798 5.761463 3.262732
144 2 2.047648 5.088798 2.035592
145 1 1.241777 10.897652 11.684407
146 2 1.555069 10.387155 10.870481
147 2 0.756898 11.666211 11.409723
148 1 6.344281 8.408422 3.876510
149 2 6.952953 8.981040 3.364881
150 2 6.686204 7.445553 3.894571
151 1 0.904240 5.919365 11.749530
152 2 1.204465 5.196017 12.357672
153 2 0.329622 5.556848 11.049147
154 1 0.636254 2.235438 4.096973
155 2 1.482883 2.561846 3.756156
156 2 0.272072 1.718936 3.364377
157 1 9.286079 10.398747 9.124351
158 2 9.283041 10.955581 9.896986
159 2 9.206140 9.474130 9.417590
160 1 10.721203 3.600693 5.279157
161 2 11.433757 3.445472 4.650564
162 2 10.455976 4.527047 5.165693
163 1 10.397875 5.964688 9.440109
164 2 11.173402 6.544606 9.192427
165 2 10.752818 5.302190 10.061669
166 1 2.427751 4.306921 0.572475
167 2 2.445905 3.410059 0.240570
168 2 3.321006 4.665635 0.309569
169 1 3.607868 10.462807 1.452030
170 2 3.718490 9.516468 1.609591
171 2 2.779542 10.543212 0.950931
172 1 4.327603 0.018834 5.176592
173 2 4.801431 -0.744341 5.571192
174 2 4.504606 -0.018140 4.207559
175 1 11.939148 10.037283 8.805197
176 2 12.095956 10.543178 8.019924
177 2 11.012999 10.231050 9.010622
178 1 1.363917 4.513756 6.739197
179 2 0.969251 5.396333 6.552976
180 2 0.785806 3.975356 6.225510
181 1 0.090893 7.607424 8.505509
182 2 -0.146079 8.564269 8.512787
183 2 0.260583 7.384260 7.559174
184 1 7.401162 10.700370 2.687903
185 2 6.588769 11.267525 2.663582
186 2 7.759481 11.034529 1.847959
187 1 8.579207 7.254782 0.294593
188 2 9.493042 7.428156 0.081211
189 2 8.299175 7.953851 0.909250
190 1 2.366305 1.717156 12.395694
191 2 3.172385 1.244462 12.123618
192 2 1.676875 1.506663 11.764765
193 3 10.970078 11.865344 0.984552
